============================[ Problem Statistics ]=============================|                                                                             ||  Number of variables:          4242                                         ||  Number of clauses:            9936                                         ||  Parse time:                   0.33 s                                       ||                                                                             |============================[ Search Statistics ]==============================| Conflicts |          ORIGINAL         |          LEARNT          | Progress ||           |    Vars  Clauses Literals |    Limit  Clauses Lit/Cl |          |===============================================================================|       100 |    1591     6141   517732 |     2251      100     53 | 62.501 % |===============================================================================restarts              : 2conflicts             : 192            (380 /sec)decisions             : 363            (0.00 % random) (719 /sec)propagations          : 10049          (19899 /sec)conflict literals     : 13381          (95.19 % deleted)CPU time              : 0.505 sSATISFIABLE